********************************************************************************
Field Output Report, written Sun Feb  5 09:06:55 2023

Source 1
---------

   ODB: C:/Users/gabri/Documents/Abaqus/Cubo/Job-Cubo.odb
   Step: Carregar
   Frame: Increment      1: Step Time =    1.000

Loc 1 : Nodal values from source 1

Output sorted by column "Node Label".

Field Output reported at nodes for part: ASB-ESTRUTURA
   Computation algorithm: EXTRAPOLATE_COMPUTE_AVERAGE
   Averaged at nodes
   Averaging regions: ODB_REGIONS

      Node Label            U.U1            U.U2            U.U3           S.S11           S.S22           S.S33           S.S12           S.S13           S.S23
                          @Loc 1          @Loc 1          @Loc 1          @Loc 1          @Loc 1          @Loc 1          @Loc 1          @Loc 1          @Loc 1
-----------------------------------------------------------------------------------------------------------------------------------------------------------------
               1     2.19269E-15     249.800E-18       -500.E-03     42.2841E-15    -23.3135E-15        -100.000     33.7328E-15    -47.3204E-15    -22.3537E-15
               2     3.24740E-15     75.0000E-03       -500.E-03     24.5672E-15    -8.32496E-15        -100.000    -11.6704E-15    -22.4482E-15     14.5678E-15
               3     4.05231E-15     150.000E-03       -500.E-03    -64.1356E-15    -129.478E-15        -100.000     5.43816E-15     29.9242E-15    -51.7396E-15
               4     2.36443E-15     725.114E-18       -250.E-03    -29.2461E-15    -4.99315E-15        -100.000    -84.9174E-15     96.8818E-15    -4.37238E-15
               5     2.93515E-15     75.0000E-03       -250.E-03     34.6498E-15    -8.64380E-15        -100.000    -20.9569E-15    -3.61919E-15    -19.3056E-15
               6     3.81466E-15     150.000E-03       -250.E-03    -16.9858E-15     7.53472E-15        -100.000    -2.33681E-15     11.1775E-15    -3.08144E-15
               7              0.              0.    -6.25000E-36     468.728E-15     1.46209E-15        -100.000     395.363E-15     368.940E-15     113.401E-15
               8     3.16153E-15     75.0000E-03    -12.5000E-36    -96.0166E-15     164.262E-15        -100.000     132.179E-15    -37.9869E-15    -34.3633E-15
               9     3.64986E-15     150.000E-03    -6.25000E-36     29.7221E-15    -49.8314E-15        -100.000    -41.0978E-15     24.3754E-15    -7.13854E-15
              10     75.0000E-03    -590.449E-18       -500.E-03    -23.4878E-15    -22.6167E-15        -100.000    -2.23448E-15     48.4911E-15    -44.9632E-15
              11     75.0000E-03     75.0000E-03       -500.E-03     21.0145E-15     45.4309E-15        -100.000    -36.8789E-15     12.7766E-15     23.0478E-15
              12     75.0000E-03     150.000E-03       -500.E-03     12.8296E-15    -18.5413E-15        -100.000    -21.7973E-15    -191.052E-18     53.8454E-15
              13     75.0000E-03    -404.292E-18       -250.E-03     39.0223E-15     32.3929E-15        -100.000    -5.48129E-15    -14.7972E-15     37.5013E-15
              14     75.0000E-03     75.0000E-03       -250.E-03     61.5861E-15     22.8407E-15        -100.000     28.1280E-15     54.9815E-15     18.2157E-15
              15     75.0000E-03     150.000E-03       -250.E-03    -30.0939E-15    -33.7975E-15        -100.000     9.72924E-15    -17.2368E-15    -2.15035E-15
              16     75.0000E-03    -605.933E-18    -12.5000E-36     272.284E-15    -39.9509E-15        -100.000     82.6413E-15    -17.8781E-15     31.2531E-15
              17     75.0000E-03     75.0000E-03    -25.0000E-36    -11.1808E-15     67.2465E-15        -100.000     7.91481E-15     52.2774E-15    -15.6621E-15
              18     75.0000E-03     150.000E-03    -12.5000E-36    -10.0546E-15     50.6091E-15        -100.000     53.6062E-15    -10.4795E-15    -26.1464E-15
              19     150.000E-03    -1.37390E-15       -500.E-03    -23.6620E-15    -603.511E-18        -100.000    -17.2435E-15    -64.7959E-15     91.3461E-15
              20     150.000E-03     75.0000E-03       -500.E-03     3.50603E-15     44.0263E-15        -100.000    -4.04777E-15     6.09630E-15    -3.78962E-15
              21     150.000E-03     150.000E-03       -500.E-03    -29.2119E-15    -35.6205E-15        -100.000     39.8586E-15     16.1572E-15    -3.25072E-15
              22     150.000E-03    -1.41727E-15       -250.E-03     55.5897E-15     27.2489E-15        -100.000    -34.0866E-15    -24.0024E-15    -56.5435E-15
              23     150.000E-03     75.0000E-03       -250.E-03    -16.5503E-15    -14.2980E-15        -100.000     7.96174E-15     8.15126E-15     3.45716E-15
              24     150.000E-03     150.000E-03       -250.E-03     34.9236E-15     20.1901E-15        -100.000    -11.2593E-15    -25.1632E-15    -6.28535E-15
              25     150.000E-03             -0.    -6.25000E-36     232.855E-15    -208.496E-15        -100.000     169.582E-15    -11.9903E-15    -221.669E-15
              26     150.000E-03     75.0000E-03    -12.5000E-36     18.1120E-15    -273.537E-15        -100.000    -21.3162E-15     33.8224E-15     6.13210E-15
              27     150.000E-03     150.000E-03    -6.25000E-36    -40.8220E-15    -17.5085E-15        -100.000    -32.8548E-15     14.3746E-15     12.1913E-15


