********************************************************************************
Field Output Report, written Sun Feb  5 17:55:07 2023

Source 1
---------

   ODB: C:/Users/gabri/Documents/Abaqus/Cubo/Job-Cubo.odb
   Step: Carregar
   Frame: Increment      1: Step Time =    1.000

Loc 1 : Nodal values from source 1

Output sorted by column "Node Label".

Field Output reported at nodes for part: ASB-ESTRUTURA
   Computation algorithm: EXTRAPOLATE_COMPUTE_AVERAGE
   Averaged at nodes
   Averaging regions: ODB_REGIONS

      Node Label            U.U1            U.U2            U.U3           S.S11           S.S22           S.S33           S.S12           S.S13           S.S23
                          @Loc 1          @Loc 1          @Loc 1          @Loc 1          @Loc 1          @Loc 1          @Loc 1          @Loc 1          @Loc 1
-----------------------------------------------------------------------------------------------------------------------------------------------------------------
               1    -3.85109E-15     8.25034E-15       -500.E-03     96.1120E-15     539.951E-15        -99.9997     460.431E-15     658.841E-15     390.349E-15
               2     4.48253E-15     75.0000E-03       -500.E-03    -409.662E-15    -126.055E-15        -99.9997    -6.35744E-15     415.153E-15     178.122E-15
               3     12.6149E-15     150.000E-03       -500.E-03    -352.853E-15     538.337E-15        -99.9997    -176.204E-15     282.919E-15    -114.364E-15
               4    -820.026E-18     9.86906E-15       -250.E-03    -133.840E-15    -729.489E-15        -99.9997    -304.882E-15    -240.821E-15    -155.232E-15
               5     6.64746E-15     75.0000E-03       -250.E-03    -71.3573E-15     145.375E-15        -99.9997     65.9790E-15     267.164E-15     560.274E-15
               6     13.2654E-15     150.000E-03       -250.E-03     389.031E-15     61.5191E-15        -99.9997    -51.7821E-15    -197.988E-15    -52.1107E-15
               7              0.              0.     2.08333E-36     2.90714E-12     6.50763E-12        -99.9997     2.83529E-12     750.361E-15     2.78089E-12
               8     7.18869E-15     75.0000E-03     4.16667E-36    -89.2288E-15     1.26416E-12        -99.9997     33.2062E-15    -221.721E-15    -185.774E-15
               9     13.6575E-15     150.000E-03     2.08333E-36     408.084E-15    -75.7770E-15        -99.9997    -156.976E-15     138.630E-15     6.57207E-15
              10     75.0000E-03     2.99066E-15       -500.E-03    -206.390E-15    -142.326E-15        -99.9997     70.7276E-15    -7.60299E-15     83.1615E-15
              11     75.0000E-03     75.0000E-03       -500.E-03    -405.575E-15    -257.926E-15        -99.9997     24.7397E-15    -116.375E-15    -74.9322E-15
              12     75.0000E-03     150.000E-03       -500.E-03    -355.329E-15    -306.251E-15        -99.9997     34.6666E-15     263.466E-15    -276.797E-15
              13     75.0000E-03     3.26692E-15       -250.E-03    -211.759E-15    -197.864E-15        -99.9997     103.210E-15    -373.010E-15     214.129E-15
              14     75.0000E-03     75.0000E-03       -250.E-03    -65.7072E-15    -113.843E-15        -99.9997     17.8480E-15    -47.8351E-15    -36.0716E-15
              15     75.0000E-03     150.000E-03       -250.E-03     332.351E-15     647.345E-15        -99.9997     155.592E-15     49.5122E-15    -66.1395E-15
              16     75.0000E-03     3.21965E-15     4.16667E-36    -192.608E-15    -661.601E-15        -99.9997    -362.351E-15    -93.5247E-15    -248.791E-15
              17     75.0000E-03     75.0000E-03     8.33333E-36    -55.8827E-15     10.5097E-15        -99.9997     237.680E-15    -6.75016E-15     85.9844E-15
              18     75.0000E-03     150.000E-03     4.16667E-36     334.384E-15     350.047E-15        -99.9997     112.282E-15    -93.0035E-15    -116.407E-15
              19     150.000E-03    -4.51344E-15       -500.E-03     590.676E-15     587.625E-15        -99.9997     72.4705E-15    -374.216E-15    -326.127E-15
              20     150.000E-03     75.0000E-03       -500.E-03    -99.7942E-15     145.227E-15        -99.9997     30.0969E-15     42.5178E-15    -342.598E-15
              21     150.000E-03     150.000E-03       -500.E-03    -60.6450E-15    -505.914E-15        -99.9997     49.8148E-15     299.755E-15     422.364E-15
              22     150.000E-03    -3.60215E-15       -250.E-03     20.8956E-15     434.606E-15        -99.9997    -171.208E-15    -129.119E-15    -119.352E-15
              23     150.000E-03     75.0000E-03       -250.E-03    -49.3038E-15    -191.897E-15        -99.9997    -136.784E-15     144.432E-15    -116.279E-15
              24     150.000E-03     150.000E-03       -250.E-03    -201.940E-15    -49.9782E-15        -99.9997    -208.766E-15     413.285E-15     273.923E-15
              25     150.000E-03             -0.     2.08333E-36     104.231E-15    -1.79441E-12        -99.9997     378.648E-15    -111.410E-15    -687.282E-15
              26     150.000E-03     75.0000E-03     4.16667E-36     75.1916E-15    -753.846E-15        -99.9997    -109.655E-15     3.38709E-15     42.8222E-15
              27     150.000E-03     150.000E-03     2.08333E-36     215.748E-15    -316.610E-15        -99.9997     87.8285E-15    -193.199E-15     123.392E-15
              28     75.0000E-03     2.99245E-15       -375.E-03    -156.579E-15    -55.0954E-15        -100.000     47.9741E-15    -113.146E-15     258.766E-15
              29     75.0000E-03     37.5000E-03       -250.E-03    -85.0981E-15    -132.948E-15        -100.000     106.323E-15    -102.066E-15     55.4612E-15
              30     75.0000E-03     75.0000E-03       -375.E-03    -128.469E-15    -118.130E-15        -100.000     50.5964E-15    -40.4193E-15     120.060E-15
              31     75.0000E-03     37.5000E-03       -500.E-03     219.733E-15     307.056E-15        -100.000     66.6608E-15    -72.4688E-15     21.0299E-15
              32     185.168E-18     37.5000E-03       -500.E-03     731.561E-15     1.10118E-12        -100.000     243.845E-15     288.758E-15     82.6026E-15
              33     5.53687E-15     75.0000E-03       -375.E-03    -231.631E-15    -176.213E-15        -100.000    -32.5848E-15     149.304E-15     233.725E-15
              34     2.77556E-15     37.5000E-03       -250.E-03     75.6553E-15     30.9386E-15        -100.000    -39.6571E-15     175.550E-15     198.063E-15
              35    -1.68789E-15     10.1074E-15       -375.E-03    -742.627E-15    -779.470E-15        -100.000    -183.933E-15     413.243E-15     177.911E-15
              36     37.5000E-03     75.0000E-03       -500.E-03     249.378E-15     431.339E-15        -100.000     82.0199E-15     100.593E-15    -18.5547E-15
              37     37.5000E-03     5.75420E-15       -500.E-03     418.385E-15     462.528E-15        -100.000     305.263E-15     298.888E-15     435.694E-15
              38     37.5000E-03     75.0000E-03       -250.E-03    -61.8010E-15     184.227E-15        -100.000     15.0198E-15     52.8667E-15     277.000E-15
              39     37.5000E-03     6.00214E-15       -250.E-03     121.049E-15     4.34598E-15        -100.000    -42.5971E-15    -253.094E-15    -24.7761E-15
              40     75.0000E-03     112.500E-03       -250.E-03     50.0931E-15     179.424E-15        -100.000     79.2116E-15    -32.8337E-15     119.374E-15
              41     75.0000E-03     150.000E-03       -375.E-03    -164.549E-15    -89.3531E-15        -100.000     85.4294E-15     106.098E-15     9.62199E-15
              42     75.0000E-03     112.500E-03       -500.E-03    -72.4065E-15    -57.4256E-15        -100.000     49.4608E-15    -226.607E-15     101.555E-15
              43     8.46724E-15     112.500E-03       -500.E-03     150.254E-15     804.359E-15        -100.000    -68.7984E-15     145.006E-15     275.867E-15
              44     13.0260E-15     150.000E-03       -375.E-03    -305.451E-15    -403.624E-15        -100.000    -19.6111E-15     97.7470E-15    -95.2224E-15
              45     9.98507E-15     112.500E-03       -250.E-03     43.7197E-15    -62.9711E-15        -100.000    -47.8141E-15     114.477E-15     218.428E-15
              46     37.5000E-03     150.000E-03       -500.E-03    -123.957E-15     224.259E-15        -100.000    -134.070E-15     274.097E-15    -157.833E-15
              47     37.5000E-03     150.000E-03       -250.E-03     97.5806E-15    -142.833E-15        -100.000     98.6917E-15     40.5269E-15    -43.7238E-15
              48     75.0000E-03     2.82825E-15       -125.E-03    -161.024E-15    -189.236E-15        -100.000    -318.147E-15    -188.076E-15     130.650E-15
              49     75.0000E-03     37.5000E-03    -16.6667E-36     89.4996E-15    -125.745E-15        -100.000    -104.135E-15    -45.3415E-15    -46.4958E-15
              50     75.0000E-03     75.0000E-03       -125.E-03    -49.1606E-15    -80.7904E-15        -100.000     189.385E-15    -12.7954E-15     59.8053E-15
              51     6.67917E-15     75.0000E-03       -125.E-03    -137.632E-15     190.755E-15        -100.000     5.06059E-15     160.006E-15     243.363E-15
              52     2.98242E-15     37.5000E-03    -8.33333E-36     1.73184E-12     4.54297E-12        -100.000     1.36637E-12     295.974E-15     1.15644E-12
              53     964.289E-18     6.99939E-15       -125.E-03     243.496E-15     1.39650E-12        -100.000     640.709E-15    -10.4116E-15     1.29836E-12
              54     37.5000E-03     75.0000E-03    -16.6667E-36    -70.4987E-15     168.606E-15        -100.000     198.923E-15    -87.5048E-15     30.8913E-15
              55     37.5000E-03     4.23099E-15    -8.33333E-36     958.816E-15     1.40998E-12        -100.000     1.20860E-12     322.574E-15     781.124E-15
              56     75.0000E-03     112.500E-03    -16.6667E-36     23.9064E-15     64.9815E-15        -100.000     140.469E-15    -58.5979E-15    -6.85607E-15
              57     75.0000E-03     150.000E-03       -125.E-03    -2.50058E-15    -135.952E-15        -100.000     43.0170E-15     51.6820E-15    -2.96950E-15
              58     13.7945E-15     150.000E-03       -125.E-03     25.8901E-15    -274.938E-15        -100.000    -126.498E-15    -60.6078E-15     21.5629E-15
              59     10.5822E-15     112.500E-03    -8.33333E-36    -237.273E-15    -135.817E-15        -100.000    -235.836E-15    -71.0601E-15    -55.3830E-15
              60     37.5000E-03     150.000E-03    -8.33333E-36     227.147E-15     31.3855E-15        -100.000    -24.3623E-15     44.7064E-15     58.1176E-15
              61     150.000E-03    -3.83027E-15       -375.E-03    -236.691E-15    -102.396E-15        -100.000     77.1807E-15     17.2657E-15     193.392E-15
              62     150.000E-03     37.5000E-03       -250.E-03    -58.4324E-15     145.786E-15        -100.000    -17.7887E-15    -57.0802E-15    -57.2302E-15
              63     150.000E-03     75.0000E-03       -375.E-03     283.541E-15     141.841E-15        -100.000     11.6105E-15     141.676E-15    -27.1247E-15
              64     150.000E-03     37.5000E-03       -500.E-03    -93.0781E-15     222.704E-15        -100.000    -95.4310E-15     10.2494E-15     80.7540E-15
              65     112.500E-03     75.0000E-03       -500.E-03    -251.569E-15     21.2159E-15        -100.000    -63.9161E-15     154.589E-15    -92.2122E-15
              66     112.500E-03    -693.889E-18       -500.E-03    -205.087E-15    -167.981E-15        -100.000     20.0877E-15    -36.1861E-15     120.126E-15
              67     112.500E-03     75.0000E-03       -250.E-03    -75.1486E-15    -216.428E-15        -100.000     37.4040E-15     99.3733E-15    -116.533E-15
              68     112.500E-03    -18.2146E-18       -250.E-03    -207.301E-15    -22.0959E-15        -100.000    -30.2841E-15    -148.768E-15     339.668E-15
              69     150.000E-03     112.500E-03       -250.E-03     19.3859E-15    -94.5882E-15        -100.000    -90.4777E-15     52.8118E-15     69.3867E-15
              70     150.000E-03     150.000E-03       -375.E-03    -42.4511E-15    -174.665E-15        -100.000    -187.344E-15     544.674E-15     531.704E-15
              71     150.000E-03     112.500E-03       -500.E-03    -114.275E-15    -323.377E-15        -100.000     127.543E-15     379.850E-15    -178.029E-15
              72     112.500E-03     150.000E-03       -500.E-03    -182.854E-15    -356.129E-15        -100.000    -35.4512E-15     192.726E-15     76.8944E-15
              73     112.500E-03     150.000E-03       -250.E-03    -33.6824E-15     12.5439E-15        -100.000    -19.3134E-15     87.1435E-15    -71.1133E-15
              74     150.000E-03    -2.05912E-15       -125.E-03     250.173E-15    -521.087E-15        -100.000     171.690E-15    -280.692E-15    -494.940E-15
              75     150.000E-03     37.5000E-03    -8.33333E-36    -334.894E-15    -1.53998E-12        -100.000     307.113E-15    -42.1707E-15    -292.756E-15
              76     150.000E-03     75.0000E-03       -125.E-03    -32.0082E-15    -390.578E-15        -100.000     3.48208E-15    -7.58816E-15    -27.5238E-15
              77     112.500E-03     75.0000E-03    -16.6667E-36     47.2780E-15     48.7319E-15        -100.000     157.339E-15    -5.25833E-15     53.5597E-15
              78     112.500E-03     579.398E-18    -8.33333E-36     168.643E-15    -613.835E-15        -100.000     32.6571E-15    -172.631E-15    -282.099E-15
              79     150.000E-03     112.500E-03    -8.33333E-36    -17.2375E-15    -202.315E-15        -100.000    -93.4141E-15     5.93606E-15     73.3859E-15
              80     150.000E-03     150.000E-03       -125.E-03     194.989E-15    -24.6764E-15        -100.000    -4.81228E-15     126.249E-15     124.685E-15
              81     112.500E-03     150.000E-03    -8.33333E-36     316.203E-15    -42.7082E-15        -100.000     55.0190E-15    -73.1016E-15     6.65428E-15


  Minimum           -3.85109E-15    -4.51344E-15       -500.E-03    -742.627E-15    -1.79441E-12        -100.000    -362.351E-15    -374.216E-15    -687.282E-15
         At Node               1              19              72              35              25              81              16              19              25

  Maximum            150.000E-03     150.000E-03     8.33333E-36     2.90714E-12     6.50763E-12        -99.9997     2.83529E-12     750.361E-15     2.78089E-12
         At Node              80              81              17               7               7              25               7               7               7

           Total         6.07500         6.07500          -20.25     4.63483E-12     9.38284E-12    -8.09999E+03     7.09342E-12     4.26899E-12     8.18803E-12


