********************************************************************************
Field Output Report, written Fri Feb  3 15:02:13 2023

Source 1
---------

   ODB: C:/temp/Job-Cubo.odb
   Step: Carregar
   Frame: Increment      1: Step Time =    1.000

Loc 1 : Nodal values from source 1

Output sorted by column "Node Label".

Field Output reported at nodes for part: ASB-ESTRUTURA
   Computation algorithm: EXTRAPOLATE_COMPUTE_AVERAGE
   Averaged at nodes
   Averaging regions: ODB_REGIONS

      Node Label            U.U1            U.U2            U.U3           S.S11           S.S22           S.S33           S.S12           S.S13           S.S23
                          @Loc 1          @Loc 1          @Loc 1          @Loc 1          @Loc 1          @Loc 1          @Loc 1          @Loc 1          @Loc 1
-----------------------------------------------------------------------------------------------------------------------------------------------------------------
               1     83.2667E-18     360.822E-18       -500.E-03    -5.20153E-15     17.5085E-15        -100.000    -33.5358E-15    -35.6454E-15    -9.53736E-15
               2     437.150E-18     150.000E-03       -500.E-03     28.4217E-15    -7.10543E-15        -100.000    -6.16883E-15     27.6785E-15    -18.8594E-15
               3              0.              0.    -25.0000E-36    -47.8341E-15    -23.9170E-15        -100.000     41.1410E-15     9.54552E-15     32.7686E-15
               4     541.234E-18     150.000E-03    -25.0000E-36    -14.2109E-15     31.0225E-15        -100.000    -6.96302E-15    -8.50298E-15    -2.58235E-15
               5     150.000E-03    -464.906E-18       -500.E-03    -14.2109E-15     18.7155E-15        -100.000    -18.0570E-15    -46.6078E-15     11.6896E-15
               6     150.000E-03     150.000E-03       -500.E-03    -23.2202E-15    -11.6101E-15        -100.000     8.89906E-15     45.8322E-15     48.1962E-15
               7     150.000E-03             -0.    -25.0000E-36     28.4217E-15    -7.10543E-15        -100.000     31.3890E-15    -6.72837E-15    -39.4874E-15
               8     150.000E-03     150.000E-03    -25.0000E-36     19.4124E-15    -31.7194E-15        -100.000    -9.49873E-15     2.95253E-15     3.23231E-15


