********************************************************************************
Field Output Report, written Sun Feb  5 09:30:29 2023

Source 1
---------

   ODB: C:/Users/gabri/Documents/Abaqus/Cubo/Job-Cubo.odb
   Step: Carregar
   Frame: Increment      1: Step Time =    1.000

Loc 1 : Nodal values from source 1

Output sorted by column "Node Label".

Field Output reported at nodes for part: ASB-ESTRUTURA
   Computation algorithm: EXTRAPOLATE_COMPUTE_AVERAGE
   Averaged at nodes
   Averaging regions: ODB_REGIONS

      Node Label            U.U1            U.U2            U.U3           S.S11           S.S22           S.S33           S.S12           S.S13           S.S23
                          @Loc 1          @Loc 1          @Loc 1          @Loc 1          @Loc 1          @Loc 1          @Loc 1          @Loc 1          @Loc 1
-----------------------------------------------------------------------------------------------------------------------------------------------------------------
               1     2.22045E-15     555.112E-18       -500.E-03    -335.758E-15     24.6799E-15        -99.9997    -252.244E-15     128.644E-15     137.021E-15
               2     4.88498E-15     150.000E-03       -500.E-03    -260.885E-15     195.499E-15        -99.9997     21.8713E-15     366.855E-15     34.1891E-15
               3              0.              0.     8.33333E-36     936.389E-15     729.686E-15        -99.9997     535.078E-15     337.550E-15     278.731E-15
               4     4.02456E-15     150.000E-03     8.33333E-36    -14.9129E-15    -158.626E-15        -99.9997    -118.182E-15     24.3467E-15    -15.4002E-15
               5     150.000E-03    -971.445E-18       -500.E-03     162.942E-15    -78.6160E-15        -99.9997     132.498E-15    -20.2354E-15     52.2878E-15
               6     150.000E-03     150.000E-03       -500.E-03    -219.926E-15    -441.917E-15        -99.9997    -233.705E-15     170.168E-15    -38.6815E-15
               7     150.000E-03             -0.     8.33333E-36    -5.56834E-15    -460.374E-15        -99.9997    -56.6430E-15    -105.149E-15    -180.819E-15
               8     150.000E-03     150.000E-03     8.33333E-36     160.096E-15     89.4012E-15        -99.9997     228.364E-15    -58.2386E-15     67.0745E-15
               9     150.000E-03    -881.240E-18       -250.E-03     6.35893E-15    -136.401E-15        -100.000    -46.2031E-15     33.2444E-15    -96.5632E-15
              10     150.000E-03     75.0000E-03    -33.3333E-36    -258.569E-15    -333.519E-15        -100.000     53.4919E-15    -1.21931E-15    -50.7374E-15
              11     150.000E-03     150.000E-03       -250.E-03     146.356E-15     154.151E-15        -100.000     190.158E-15     10.2100E-15     49.8023E-15
              12     150.000E-03     75.0000E-03       -500.E-03     257.305E-15    -174.300E-15        -100.000     30.5552E-15    -29.9167E-15    -10.2743E-15
              13     2.64719E-15     75.0000E-03       -500.E-03     270.411E-15     583.788E-15        -100.000    -70.7155E-15    -57.4944E-15     18.8600E-15
              14     4.25658E-15     150.000E-03       -250.E-03    -207.679E-15    -197.554E-15        -100.000     18.2116E-15     165.433E-15     7.60311E-15
              15     2.92922E-15     75.0000E-03    -33.3333E-36     180.863E-15     317.988E-15        -100.000     180.861E-15     26.3583E-15     84.7043E-15
              16     1.70003E-15     1.08247E-15       -250.E-03    -27.9323E-15    -26.2530E-15        -100.000     4.26327E-15     244.958E-15     246.880E-15
              17     75.0000E-03     150.000E-03       -500.E-03    -99.9677E-15     24.0119E-15        -100.000    -12.0825E-15     197.176E-15    -13.7921E-15
              18     75.0000E-03    -333.067E-18       -500.E-03    -110.765E-15    -59.8310E-15        -100.000    -5.44303E-15     16.0505E-15     37.6235E-15
              19     75.0000E-03     150.000E-03    -33.3333E-36     308.138E-15     215.361E-15        -100.000     73.5718E-15    -45.8521E-15    -22.7072E-15
              20     75.0000E-03    -143.798E-18    -33.3333E-36     664.455E-15     332.839E-15        -100.000     231.221E-15     115.519E-15     55.8413E-15


